(set-logic ALL)
(declare-const seq_string String)
(assert (not (< (str.len seq_string) 0)))
(assert (not (= (+ 0 (str.indexof seq_string " " 0)) (- 1))))
(assert (not (< (+ 0 (str.indexof seq_string " " 0)) 0)))
(assert (not (< (+ (+ 0 (str.indexof seq_string " " 0)) 1) 0)))
(assert (not (< (str.len seq_string) 0)))
(assert (< (str.len (str.substr seq_string (+ (+ 0 (str.indexof seq_string " " 0)) 1) (- (str.len seq_string) (+ (+ 0 (str.indexof seq_string " " 0)) 1)))) 0))
(check-sat)
(get-value (seq_string))
